8
0 1136 11858 6744 5057 5267 5939 4763
1136 0 11385 6228 5970 5970 5943 5421
636 11385 0 5178 6802 7299 5952 7634
6744 6228 5178 0 2781 9085 3307 7994
5057 5970 6802 2781 0 6495 1303 5325
5267 5970 7299 9085 6495 0 5777 1184
5939 5943 5952 3307 1303 5777 0 4709
4763 5421 7634 7994 5325 1184 4709 0